000 000 000 000 000 000 -99 -99 -99 -99 -99 -99 000 000 000 000 -99 -99 000 000 000 000 -99 -99 000 000 -99 -99 -99 -99 000
-99 000 000 000 000 000 000 -99 000 -99 -99 -99 -99 000 000 000 -99 -99 -99 000 000 000 -99 -99 000 000 -99 -99 -99 -99 -99
-99 000 000 000 000 000 000 -99 000 000 -99 -99 -99 -99 000 000 000 -99 -99 000 000 -99 000 000 000 000 000 000 -99 -99 -99
-99 000 000 000 000 000 000 -99 000 000 -99 -99 000 -99 000 000 000 -99 -99 000 000 -99 000 000 000 000 000 000 -99 -99 -99
000 000 000 000 000 000 000 000 000 000 -99 -99 000 000 000 000 -99 -99 -99 -99 000 000 000 000 000 000 -99 -99 -99 -99 -99
000 000 000 000 000 000 000 000 000 000 000 000 000 000 000 000 -99 -99 -99 -99 000 000 000 000 000 000 -99 -99 -99 -99 -99
000 000 000 000 000 000 000 000 000 000 000 000 000 000 000 000 -99 -99 -99 -99 000 000 000 000 000 000 -99 -99 -99 -99 -99
000 000 000 000 000 000 000 000 000 000 000 000 000 000 000 000 000 000 000 -99 -99 000 000 000 000 -99 -99 -99 -99 -99 -99
000 000 000 000 000 000 000 000 -99 000 000 000 000 -99 000 000 -99 000 000 000 000 -99 -99 000 000 -99 -99 -99 -99 -99 -99
000 000 000 000 000 000 -99 -99 000 000 000 000 000 -99 000 000 -99 000 000 000 000 000 -99 000 000 000 -99 -99 -99 -99 -99
000 000 000 000 000 000 000 000 000 000 000 000 000 000 000 000 000 -99 000 -99 000 000 -99 000 000 -99 -99 -99 000 -99 -99
000 000 000 000 000 000 000 000 000 000 000 000 000 000 000 000 000 -99 000 000 000 000 -99 000 000 -99 -99 -99 000 000 -99
000 000 000 000 000 000 000 000 000 000 000 000 000 000 -99 000 000 000 000 -99 -99 000 -99 -99 000 000 -99 -99 000 000 -99
000 000 000 000 000 000 000 000 000 -99 000 000 000 000 -99 000 000 000 000 000 -99 -99 -99 -99 000 000 -99 000 000 -99 -99
000 000 -99 000 000 000 000 000 000 000 -99 -99 000 000 -99 000 000 000 000 -99 -99 000 -99 -99 000 000 000 000 000 000 -99
000 -99 -99 000 000 000 000 000 000 -99 -99 -99 -99 000 -99 000 000 000 000 -99 -99 000 -99 -99 000 000 000 000 000 000 -99
000 -99 000 000 -99 -99 000 000 000 -99 -99 -99 -99 000 000 000 000 000 000 -99 -99 000 000 -99 000 000 000 000 000 000 000
000 000 -99 -99 000 000 000 000 000 000 -99 -99 -99 -99 000 000 000 000 000 -99 -99 000 000 -99 -99 -99 000 000 -99 000 000
000 000 000 -99 000 000 000 000 000 000 -99 -99 -99 000 000 000 000 000 000 -99 -99 000 000 -99 -99 -99 000 -99 -99 000 000
000 000 000 000 000 -99 -99 000 000 -99 000 000 000 000 000 000 000 000 000 -99 -99 000 000 -99 -99 -99 -99 -99 -99 000 000
000 000 000 000 000 000 -99 000 000 000 000 000 000 000 000 000 000 000 000 000 000 000 000 -99 -99 -99 -99 -99 -99 -99 -99
000 000 000 000 000 000 -99 000 000 000 000 -99 000 000 000 000 000 000 000 000 000 000 000 -99 -99 -99 -99 -99 -99 -99 -99
000 000 000 000 000 000 -99 000 000 000 000 -99 000 000 000 000 000 000 000 000 000 000 000 -99 -99 -99 -99 -99 -99 -99 -99
000 000 000 000 000 000 -99 000 000 000 -99 -99 000 000 000 000 000 000 000 000 000 000 000 -99 -99 -99 -99 -99 -99 -99 -99
000 000 000 000 000 000 000 000 000 000 -99 -99 000 000 000 000 000 000 000 000 000 000 000 -99 -99 -99 -99 -99 -99 -99 -99
000 000 000 000 000 000 000 000 000 -99 -99 -99 -99 000 000 000 000 000 000 000 000 000 -99 -99 -99 -99 -99 -99 -99 -99 -99
000 000 000 000 000 000 000 000 000 -99 -99 -99 -99 000 000 000 000 000 000 000 000 000 000 -99 -99 -99 -99 -99 -99 -99 -99
000 000 000 000 000 000 000 000 000 -99 -99 -99 000 000 000 000 000 000 000 000 000 000 000 -99 -99 -99 -99 -99 -99 -99 -99
000 000 000 000 000 000 000 000 000 000 -99 -99 -99 000 000 000 000 000 000 000 000 000 -99 -99 -99 -99 -99 -99 -99 -99 -99
000 000 000 000 000 000 000 000 000 -99 -99 -99 -99 000 000 000 000 000 000 000 000 000 -99 -99 -99 -99 -99 -99 -99 -99 -99
000 000 000 000 000 000 000 000 000 000 -99 -99 -99 000 000 000 000 000 000 000 000 000 -99 -99 -99 -99 -99 -99 -99 -99 -99
000 000 000 000 000 000 000 -99 000 000 000 -99 -99 000 000 -99 000 000 000 000 -99 000 -99 -99 -99 -99 -99 -99 -99 -99 -99
000 000 000 000 000 000 000 000 000 000 -99 -99 -99 000 000 -99 000 000 000 -99 -99 -99 -99 -99 -99 -99 -99 -99 -99 -99 000
000 000 000 000 000 000 000 000 000 000 -99 -99 -99 000 000 000 000 000 -99 -99 -99 -99 -99 -99 -99 -99 -99 -99 -99 000 000
000 000 000 000 000 000 000 000 000 000 -99 -99 -99 000 000 000 000 000 -99 000 -99 000 -99 000 000 000 -99 -99 000 000 000
000 000 000 000 000 000 000 000 000 000 -99 -99 000 000 000 000 000 000 000 000 000 000 -99 000 000 -99 -99 000 000 000 000
000 000 000 000 000 -99 000 000 000 000 000 000 000 000 000 000 000 -99 000 000 000 000 000 000 000 000 000 000 000 -99 000
000 000 -99 000 000 000 000 000 000 000 -99 000 000 000 000 000 000 -99 000 000 000 000 000 000 000 000 000 000 000 -99 000
000 000 000 000 000 000 000 000 000 000 -99 000 000 000 000 000 000 000 000 -99 -99 -99 000 000 000 000 000 000 -99 -99 -99
000 000 000 000 000 000 000 000 -99 -99 -99 000 000 000 000 000 000 000 -99 -99 -99 -99 000 000 000 000 000 000 -99 000 000
000 000 000 000 000 000 000 000 000 000 000 000 000 000 000 000 000 -99 000 -99 -99 000 000 000 000 000 000 -99 -99 000 000
000 000 000 000 000 000 000 000 000 000 000 000 000 000 000 000 000 000 000 -99 -99 -99 000 000 000 -99 -99 -99 -99 000 000
000 -99 -99 000 -99 000 000 000 000 000 000 000 000 000 000 000 000 000 000 -99 -99 000 000 000 000 -99 -99 -99 -99 -99 -99
000 -99 -99 -99 -99 -99 -99 -99 000 000 000 000 000 000 000 000 000 000 000 -99 -99 000 000 000 000 000 -99 -99 -99 -99 -99
000 -99 -99 -99 -99 -99 -99 -99 -99 000 000 000 000 000 000 000 000 000 000 000 -99 -99 000 000 000 -99 -99 -99 -99 -99 -99
000 000 -99 -99 -99 -99 -99 -99 000 000 -99 000 000 000 000 -99 000 000 032 010 011 -99 -99 000 000 -99 -99 -99 -99 -99 000
000 000 -99 -99 -99 -99 -99 -99 000 000 000 000 000 000 000 -99 -99 000 000 002 085 045 003 000 000 -99 -99 -99 -99 000 000
000 -99 -99 -99 -99 -99 -99 -99 000 000 000 000 000 000 000 -99 -99 000 001 001 000 012 004 023 003 000 -99 -99 000 000 000
000 -99 -99 -99 -99 -99 -99 -99 000 000 000 000 000 000 000 -99 000 000 000 002 000 000 000 000 002 000 000 000 000 000 000
-99 -99 -99 -99 -99 -99 -99 -99 000 000 000 000 000 000 -99 -99 000 000 001 001 000 000 000 000 000 -99 -99 000 -99 000 000
-99 -99 -99 000 -99 -99 -99 -99 -99 000 000 000 000 000 -99 000 000 000 001 000 000 000 000 -99 000 -99 -99 000 000 000 000
-99 -99 -99 000 -99 -99 -99 -99 -99 -99 000 -99 -99 -99 -99 000 000 001 002 000 001 000 -99 -99 -99 -99 -99 -99 -99 000 -99
-99 -99 000 -99 -99 -99 000 -99 -99 -99 -99 -99 -99 -99 -99 000 000 000 000 001 000 000 001 000 000 -99 -99 -99 -99 -99 -99
-99 000 000 -99 -99 000 -99 -99 -99 -99 -99 -99 -99 -99 000 000 000 000 000 000 000 000 000 000 001 -99 -99 -99 -99 -99 -99
-99 000 -99 -99 -99 -99 -99 -99 -99 -99 -99 -99 -99 -99 000 000 000 000 -99 000 000 001 001 002 001 -99 -99 -99 -99 -99 -99
